7
0, 871, 489, 590, 606, 744, 441
871, 0, 465, 202, 266, 714, 122
489, 465, 0, 3, 771, 262, 92
590, 202, 3, 0, 267, 93, 7
606, 266, 771, 267, 0, 610, 336
744, 714, 262, 93, 610, 0, 883
441, 122, 92, 7, 336, 883, 0
